ampl/survo_puzzle3.dat
# http://en.wikipedia.org/wiki/Survo_Puzzle, third example
# difficulty 150 ("open puzzle", i.e. no hints)
# It's an unique solution.
param r := 3;
param c := 4;

param rowsums :=
   1  24
   2 15
   3 39
;

param colsums :=
   1 21
   2 10
   3 18
   4 29
;

param matrix: 1 2 3 4:=
   1  0 0 0 0
   2  0 0 0 0
   3  0 0 0 0
;
