essence_tailor/survo_puzzle3.param
$ http://en.wikipedia.org/wiki/Survo_Puzzle, third example
$ difficulty 150 ("open puzzle", i.e. no hints)
$ It's an unique solution.
ESSENCE' 1.0
param r be 3
param c be 4
param rowsums be [24,15,39]
param colsums be [21,10,18,29]
param game be
   [
     [0, 0, 0, 0],
     [0, 0, 0, 0],
     [0, 0, 0, 0]
   ]
